c Sudoku solution
p cnf 729 0
212 0
233 0
254 0
261 0
288 0
326 0
368 0
374 0
432 0
487 0
543 0
557 0
565 0
579 0
598 0
582 0
671 0
694 0
795 0
815 0
838 0
846 0
913 0
922 0
934 0
948 0
955 0
778 0
996 0
977 0
981 0
969 0
276 0
686 0
475 0
493 0
623 0
635 0
617 0
662 0
649 0
658 0
311 0
191 0
159 0
166 0
353 0
137 0
339 0
225 0
247 0
299 0
397 0
172 0
145 0
342 0
183 0
385 0
752 0
851 0
744 0
884 0
441 0
456 0
464 0
873 0
892 0
789 0
763 0
867 0
727 0
731 0
716 0
829 0
514 0
521 0
536 0
118 0
124 0
419 0
428 0
